data;

param f_y :=
f1	-10
f2	-6
f3	-5
f4	-5
f5	-4
f6	3
f7	4
f8	5
f9	5
f10	5
f11	6
f12	6
f13	6
f14	8
f15	9
;

param f_x := 
f1	7
f2	9
f3	-5
f4	5
f5	2
f6	9
f7	1
f8	-7
f9	-2
f10	5
f11	-7
f12	-6
f13	8
f14	-5
f15	1
;

